p cnf 27 23
-1 4 22 -23 -24 0 
-2 23 -24 0 
-3 23 -24 0 
-4 1 -5 -6 23 -24 0 
-7 12 23 -24 0 
-8 23 -24 0 
-9 23 -24 0 
-10 23 -24 0 
-11 23 -24 0 
-1 4 23 -24 0 
-12 7 23 -24 0 
-13 24 -23 0 
-14 23 -24 0 
-15 25 0 
-1 4 -16 23 -24 0 
-17 23 -24 0 
-18 23 -24 0 
-15 23 -24 0 
-19 23 -24 0 
-20 26 -23 -24 0 
-1 4 26 -23 -24 0 
-16 27 -11 -23 -24 0 
-21 22 -23 -24 0 
